20 20
15 34 1
2 33 1
24 8 1
8 11 1
31 6 1
7 33 1
3 8 1
27 32 1
27 8 1
1 25 1
25 9 1
14 3 1
35 26 1
25 5 1
3 17 1
1 12 1
27 20 1
29 15 1
5 17 1
31 20 1
40 40 
40 40 
40 40 
40 40 
40 40 
40 40 
40 40 
40 40 
40 40 
40 40 
40 40 
40 40 
40 40 
40 40 
40 40 
40 40 
40 40 
40 40 
40 40 
40 40 
